c clasp version 2.1.1
c Reading from p75.cnf
c Solving...
s SATISFIABLE

c Models        : 1+    
c Time          : 1.859s (Solving: 1.01s 1st Model: 1.01s Unsat: 0.00s)
c CPU Time      : 1.850s
c Choices       : 42253
c Conflicts     : 3536
c Restarts      : 5      (Average: 707.20 Last: 287)

c Variables     : 217439 (Eliminated: 68013 Frozen:    0)
c Constraints   : 234490 (Binary: 66.0% Ternary: 33.4% Other:  0.6%)
c Lemmas        : 3536   (Binary:  0.2% Ternary:  0.6% Other: 99.2%)
c   Conflict    : 3536   (Average Length: 53.3) 
c   Loop        : 0      (Average Length: 0.0) 
c   Other       : 0      (Average Length: 0.0)
c   Deleted     : 0     
